20J6M/DAT/20J6MULL-2.dat
20 6
46.5045 46.5045
21.7254 21.7254
6.0853 6.0853
47.377 47.377
3.4543 3.4543
14.108 14.108
23.6037 23.6037
41.4443 41.4443
30.6295 30.6295
4.2885 4.2885
21.3794 21.3794
24.0454 24.0454
41.027 41.027
24.8816 24.8816
29.0703 29.0703
22.203 22.203
24.2937 24.2937
30.2295 30.2295
19.2585 19.2585
42.3063 42.3063
86.3192