20J6M/SOL/20J6MULL-2.sol
solution status: optimal solution found
objective value:                              86.3192
x#1#1                                               1 	(obj:0)
x#2#3                                               1 	(obj:0)
x#3#3                                               1 	(obj:0)
x#4#1                               0.840380353336007 	(obj:0)
x#4#6                               0.159619646663993 	(obj:0)
x#5#3                                               1 	(obj:0)
x#6#3                                               1 	(obj:0)
x#7#3                                               1 	(obj:0)
x#8#5                                               1 	(obj:0)
x#9#3                               0.477471065476093 	(obj:0)
x#9#6                               0.522528934523907 	(obj:0)
x#10#4                                              1 	(obj:0)
x#11#4                                              1 	(obj:0)
x#12#2                               0.20193467357582 	(obj:0)
x#12#4                               0.79806532642418 	(obj:0)
x#13#5                                              1 	(obj:0)
x#14#2                                              1 	(obj:0)
x#15#2                                              1 	(obj:0)
x#16#4                                              1 	(obj:0)
x#17#6                                              1 	(obj:0)
x#18#2                              0.910094444168775 	(obj:0)
x#18#3                             0.0899055558312247 	(obj:0)
x#19#4                                              1 	(obj:0)
x#20#5                             0.0909533568286519 	(obj:0)
x#20#6                              0.909046643171348 	(obj:0)
z                                             86.3192 	(obj:1)
